(declare-fun temp39884_1 () (_ BitVec 64))
(declare-fun temp39884_2 () (_ BitVec 64))
(declare-fun var77740 () (_ BitVec 64))
(declare-fun k!0 () Bool)
(declare-fun ARGNAME_filter_NAMEEND_DIM () (_ BitVec 64))
(declare-fun ARGNAME_data_format_NAMEEND_STRFMT () (_ BitVec 64))
(declare-fun temp39884_3 () (_ BitVec 64))
(declare-fun ARGNAME_out_backprop_NAMEEND_DIM () (_ BitVec 64))
(declare-fun var77770 () (_ BitVec 64))
(declare-fun temp39884_4 () (_ BitVec 64))
(declare-fun temp39884_5 () (_ BitVec 64))
(declare-fun ARGNAME_filter_NAMEEND_DIMSIZE
             ()
             (Array (_ BitVec 64) (_ BitVec 64)))
(declare-fun temp39884_6 () (_ BitVec 64))
(declare-fun temp39884_7 () (_ BitVec 64))
(declare-fun temp39884_8 () (_ BitVec 64))
(declare-fun temp39884_9 () (_ BitVec 64))
(declare-fun temp39884_10 () (_ BitVec 64))
(declare-fun temp39884_11 () (_ BitVec 64))
(declare-fun temp39884_12 () (_ BitVec 64))
(declare-fun temp39884_13 () (_ BitVec 64))
(declare-fun temp39884_14 () (_ BitVec 64))
(declare-fun temp39884_15 () (_ BitVec 64))
(declare-fun temp39884_16 () (_ BitVec 64))
(declare-fun temp39884_17 () (_ BitVec 64))
(declare-fun temp39884_18 () (_ BitVec 64))
(declare-fun var77799 () (_ BitVec 64))
(declare-fun temp39884_19 () (_ BitVec 64))
(declare-fun ARGNAME_out_backprop_NAMEEND_DIMSIZE
             ()
             (Array (_ BitVec 64) (_ BitVec 64)))
(declare-fun temp39884_20 () (_ BitVec 64))
(declare-fun temp39884_21 () (_ BitVec 64))
(declare-fun temp39884_22 () (_ BitVec 64))
(declare-fun temp39884_23 () (_ BitVec 64))
(declare-fun temp39884_24 () (_ BitVec 64))
(declare-fun temp39884_25 () (_ BitVec 64))
(declare-fun temp39884_26 () (_ BitVec 64))
(declare-fun temp39884_27 () (_ BitVec 64))
(declare-fun temp39884_28 () (_ BitVec 64))
(declare-fun temp39884_29 () (_ BitVec 64))
(declare-fun temp39884_30 () (_ BitVec 64))
(declare-fun temp39884_31 () (_ BitVec 64))
(declare-fun temp39884_32 () (_ BitVec 64))
(declare-fun var77832 () (_ BitVec 64))
(declare-fun temp39884_33 () (_ BitVec 64))
(declare-fun temp39884_34 () (_ BitVec 64))
(declare-fun var77833 () (_ BitVec 64))
(declare-fun var77834 () (_ BitVec 64))
(declare-fun temp39884_35 () (_ BitVec 64))
(declare-fun temp39884_36 () (_ BitVec 64))
(declare-fun var275510 () (_ BitVec 64))
(declare-fun temp39884_37 () (_ BitVec 64))
(declare-fun var275528 () (_ BitVec 64))
(declare-fun temp39884_38 () (_ BitVec 64))
(declare-fun temp39884_40 () (_ BitVec 64))
(declare-fun temp39884_39 () (_ BitVec 64))
(declare-fun temp39884_42 () (_ BitVec 64))
(declare-fun temp39884_41 () (_ BitVec 64))
(declare-fun temp39884_43 () (_ BitVec 64))
(declare-fun var406582 () (_ BitVec 64))
(declare-fun temp39884_44 () (_ BitVec 64))
(declare-fun var406600 () (_ BitVec 64))
(declare-fun temp39884_45 () (_ BitVec 64))
(declare-fun temp39884_46 () (_ BitVec 64))
(declare-fun var537654 () (_ BitVec 64))
(declare-fun temp39884_47 () (_ BitVec 64))
(declare-fun var537672 () (_ BitVec 64))
(declare-fun temp39884_48 () (_ BitVec 64))
(declare-fun temp39884_50 () (_ BitVec 64))
(declare-fun temp39884_49 () (_ BitVec 64))
(declare-fun temp39884_52 () (_ BitVec 64))
(declare-fun temp39884_51 () (_ BitVec 64))
(declare-fun temp39884_54 () (_ BitVec 64))
(declare-fun temp39884_53 () (_ BitVec 64))
(declare-fun temp39884_55 () (_ BitVec 64))
(declare-fun var795723 () (_ BitVec 64))
(declare-fun var795702 () (_ BitVec 64))
(declare-fun var664608 () (_ BitVec 64))
(declare-fun temp39884_56 () (_ BitVec 64))
(declare-fun temp39884_57 () (_ BitVec 64))
(declare-fun var1057842 () (_ BitVec 64))
(declare-fun temp39884_58 () (_ BitVec 64))
(declare-fun var1123378 () (_ BitVec 64))
(declare-fun temp39884_59 () (_ BitVec 64))
(declare-fun var1188914 () (_ BitVec 64))
(declare-fun temp39884_60 () (_ BitVec 64))
(declare-fun var78184 () (_ BitVec 64))
(assert (or (= ARGNAME_data_format_NAMEEND_STRFMT #x0000000000000000)
    (= ARGNAME_data_format_NAMEEND_STRFMT #x0000000000000001)
    (= ARGNAME_data_format_NAMEEND_STRFMT #x0000000000000002)
    (= ARGNAME_data_format_NAMEEND_STRFMT #x0000000000000003)
    (= ARGNAME_data_format_NAMEEND_STRFMT #x0000000000000004)
    (= ARGNAME_data_format_NAMEEND_STRFMT #x0000000000000005)))
(assert (= temp39884_1 #x0000000000000005))
(assert (= var77740
   (ite (= ARGNAME_filter_NAMEEND_DIM temp39884_1)
        #x0000000000000001
        #x0000000000000000)))
(assert (= temp39884_2 #x0000000000000001))
(assert (= var77740 temp39884_2))
(assert (= temp39884_3 #x0000000000000005))
(assert (= var77770
   (ite (= ARGNAME_out_backprop_NAMEEND_DIM temp39884_3)
        #x0000000000000001
        #x0000000000000000)))
(assert (= temp39884_4 #x0000000000000001))
(assert (= var77770 temp39884_4))
(assert (= temp39884_5 #x0000000000000000))
(assert (= temp39884_6 (select ARGNAME_filter_NAMEEND_DIMSIZE temp39884_5)))
(assert (= temp39884_7 #x0000000000000001))
(assert (= temp39884_8 (select ARGNAME_filter_NAMEEND_DIMSIZE temp39884_7)))
(assert (= temp39884_9 #x0000000000000002))
(assert (= temp39884_10 (select ARGNAME_filter_NAMEEND_DIMSIZE temp39884_9)))
(assert (= temp39884_11 #x0000000000000003))
(assert (= temp39884_12 (select ARGNAME_filter_NAMEEND_DIMSIZE temp39884_11)))
(assert (= temp39884_13 #x0000000000000004))
(assert (= temp39884_14 (select ARGNAME_filter_NAMEEND_DIMSIZE temp39884_13)))
(assert (= temp39884_15 #x0000000000000005))
(assert (= temp39884_16 (select ARGNAME_filter_NAMEEND_DIMSIZE temp39884_15)))
(assert (= temp39884_17 #x0000000000000003))
(assert (= temp39884_18 (select ARGNAME_filter_NAMEEND_DIMSIZE temp39884_17)))
(assert (= var77799 temp39884_18))
(assert (= temp39884_19 #x0000000000000000))
(assert (= temp39884_20 (select ARGNAME_out_backprop_NAMEEND_DIMSIZE temp39884_19)))
(assert (= temp39884_21 #x0000000000000001))
(assert (= temp39884_22 (select ARGNAME_out_backprop_NAMEEND_DIMSIZE temp39884_21)))
(assert (= temp39884_23 #x0000000000000002))
(assert (= temp39884_24 (select ARGNAME_out_backprop_NAMEEND_DIMSIZE temp39884_23)))
(assert (= temp39884_25 #x0000000000000003))
(assert (= temp39884_26 (select ARGNAME_out_backprop_NAMEEND_DIMSIZE temp39884_25)))
(assert (= temp39884_27 #x0000000000000004))
(assert (= temp39884_28 (select ARGNAME_out_backprop_NAMEEND_DIMSIZE temp39884_27)))
(assert (= temp39884_29 #x0000000000000005))
(assert (= temp39884_30 (select ARGNAME_out_backprop_NAMEEND_DIMSIZE temp39884_29)))
(assert (= temp39884_31 #x0000000000000004))
(assert (= temp39884_32 (select ARGNAME_out_backprop_NAMEEND_DIMSIZE temp39884_31)))
(assert (= var77832 temp39884_32))
(assert (= temp39884_33 #x0000000000000004))
(assert (= temp39884_34 (select ARGNAME_filter_NAMEEND_DIMSIZE temp39884_33)))
(assert (= var77833 temp39884_34))
(assert (= var77834 (ite (= var77832 var77833) #x0000000000000001 #x0000000000000000)))
(assert (= temp39884_35 #x0000000000000001))
(assert (= var77834 temp39884_35))
(assert (= temp39884_36 #x0000000000000001))
(assert (= var275510 temp39884_36))
(assert (= temp39884_37 #x0000000000000001))
(assert (= var275528
   (ite (bvslt var275510 temp39884_37) #x0000000000000001 #x0000000000000000)))
(assert (= temp39884_38 #x0000000000000000))
(assert (= var275528 temp39884_38))
(assert (= temp39884_40 #x0000000000000000))
(assert (= temp39884_39 temp39884_40))
(assert (= temp39884_42 #x0000000000000000))
(assert (= temp39884_41 temp39884_42))
(assert (= temp39884_43 #x0000000000000001))
(assert (= var406582 temp39884_43))
(assert (= temp39884_44 #x0000000000000001))
(assert (= var406600
   (ite (bvslt var406582 temp39884_44) #x0000000000000001 #x0000000000000000)))
(assert (= temp39884_45 #x0000000000000000))
(assert (= var406600 temp39884_45))
(assert (= temp39884_46 #x0000000000000001))
(assert (= var537654 temp39884_46))
(assert (= temp39884_47 #x0000000000000001))
(assert (= var537672
   (ite (bvslt var537654 temp39884_47) #x0000000000000001 #x0000000000000000)))
(assert (= temp39884_48 #x0000000000000000))
(assert (= var537672 temp39884_48))
(assert (= temp39884_50 #x00000000000000ff))
(assert (= temp39884_49 temp39884_50))
(assert (= temp39884_52 #x00000000000000ff))
(assert (= temp39884_51 temp39884_52))
(assert (= temp39884_54 #x00000000000000ff))
(assert (= temp39884_53 temp39884_54))
(assert (= temp39884_55 #x0000000000000000))
(assert (= var795723 temp39884_55))
(assert (= var795702 var795723))
(assert (= var664608 var795702))
(assert (= temp39884_56 #x0000000000000000))
(assert (= var664608 temp39884_56))
(assert (= temp39884_57 #x0000000000008000))
(assert (= var1057842 temp39884_57))
(assert (= temp39884_58 #x0000000000040000))
(assert (= var1123378 temp39884_58))
(assert (= temp39884_59 #x0000000000200000))
(assert (= var1188914 temp39884_59))
(assert (= temp39884_60 #x0000000000000001))
(assert (= var78184 temp39884_60))
(model-add temp39884_1 () (_ BitVec 64) #x0000000000000005)
(model-add temp39884_2 () (_ BitVec 64) #x0000000000000001)
(model-add var77740 () (_ BitVec 64) #x0000000000000001)
(model-del k!0)
(model-add ARGNAME_filter_NAMEEND_DIM
           ()
           (_ BitVec 64)
           (ite k!0 #x0000000000000005 (bvnot #x0000000000000005)))


